c File: flat50_3_0.col
c
c SOURCE: Joseph Culberson (joe@cs.ualberta.ca)
c DESCRIPTION: Quasi-random coloring problem
c              generated with flatness = 0
c                             probability = 0.139
c                             known coloring = 3
c                             random seed = 1538
c              Creation Date:  Tue Jun  9 12:11:45 1998
c Maximum degree = 8 Minimum degree = 0
c p edge 50 115
c cnf created by edge2cnf
p cnf 150 545
-1 -2 0
-1 -3 0
-2 -3 0
1 2 3 0
-4 -5 0
-4 -6 0
-5 -6 0
4 5 6 0
-7 -8 0
-7 -9 0
-8 -9 0
7 8 9 0
-10 -11 0
-10 -12 0
-11 -12 0
10 11 12 0
-13 -14 0
-13 -15 0
-14 -15 0
13 14 15 0
-16 -17 0
-16 -18 0
-17 -18 0
16 17 18 0
-19 -20 0
-19 -21 0
-20 -21 0
19 20 21 0
-22 -23 0
-22 -24 0
-23 -24 0
22 23 24 0
-25 -26 0
-25 -27 0
-26 -27 0
25 26 27 0
-28 -29 0
-28 -30 0
-29 -30 0
28 29 30 0
-31 -32 0
-31 -33 0
-32 -33 0
31 32 33 0
-34 -35 0
-34 -36 0
-35 -36 0
34 35 36 0
-37 -38 0
-37 -39 0
-38 -39 0
37 38 39 0
-40 -41 0
-40 -42 0
-41 -42 0
40 41 42 0
-43 -44 0
-43 -45 0
-44 -45 0
43 44 45 0
-46 -47 0
-46 -48 0
-47 -48 0
46 47 48 0
-49 -50 0
-49 -51 0
-50 -51 0
49 50 51 0
-52 -53 0
-52 -54 0
-53 -54 0
52 53 54 0
-55 -56 0
-55 -57 0
-56 -57 0
55 56 57 0
-58 -59 0
-58 -60 0
-59 -60 0
58 59 60 0
-61 -62 0
-61 -63 0
-62 -63 0
61 62 63 0
-64 -65 0
-64 -66 0
-65 -66 0
64 65 66 0
-67 -68 0
-67 -69 0
-68 -69 0
67 68 69 0
-70 -71 0
-70 -72 0
-71 -72 0
70 71 72 0
-73 -74 0
-73 -75 0
-74 -75 0
73 74 75 0
-76 -77 0
-76 -78 0
-77 -78 0
76 77 78 0
-79 -80 0
-79 -81 0
-80 -81 0
79 80 81 0
-82 -83 0
-82 -84 0
-83 -84 0
82 83 84 0
-85 -86 0
-85 -87 0
-86 -87 0
85 86 87 0
-88 -89 0
-88 -90 0
-89 -90 0
88 89 90 0
-91 -92 0
-91 -93 0
-92 -93 0
91 92 93 0
-94 -95 0
-94 -96 0
-95 -96 0
94 95 96 0
-97 -98 0
-97 -99 0
-98 -99 0
97 98 99 0
-100 -101 0
-100 -102 0
-101 -102 0
100 101 102 0
-103 -104 0
-103 -105 0
-104 -105 0
103 104 105 0
-106 -107 0
-106 -108 0
-107 -108 0
106 107 108 0
-109 -110 0
-109 -111 0
-110 -111 0
109 110 111 0
-112 -113 0
-112 -114 0
-113 -114 0
112 113 114 0
-115 -116 0
-115 -117 0
-116 -117 0
115 116 117 0
-118 -119 0
-118 -120 0
-119 -120 0
118 119 120 0
-121 -122 0
-121 -123 0
-122 -123 0
121 122 123 0
-124 -125 0
-124 -126 0
-125 -126 0
124 125 126 0
-127 -128 0
-127 -129 0
-128 -129 0
127 128 129 0
-130 -131 0
-130 -132 0
-131 -132 0
130 131 132 0
-133 -134 0
-133 -135 0
-134 -135 0
133 134 135 0
-136 -137 0
-136 -138 0
-137 -138 0
136 137 138 0
-139 -140 0
-139 -141 0
-140 -141 0
139 140 141 0
-142 -143 0
-142 -144 0
-143 -144 0
142 143 144 0
-145 -146 0
-145 -147 0
-146 -147 0
145 146 147 0
-148 -149 0
-148 -150 0
-149 -150 0
148 149 150 0
-64 -1 0
-65 -2 0
-66 -3 0
-76 -1 0
-77 -2 0
-78 -3 0
-85 -1 0
-86 -2 0
-87 -3 0
-97 -1 0
-98 -2 0
-99 -3 0
-145 -1 0
-146 -2 0
-147 -3 0
-112 -4 0
-113 -5 0
-114 -6 0
-115 -4 0
-116 -5 0
-117 -6 0
-136 -4 0
-137 -5 0
-138 -6 0
-142 -4 0
-143 -5 0
-144 -6 0
-70 -7 0
-71 -8 0
-72 -9 0
-82 -7 0
-83 -8 0
-84 -9 0
-103 -7 0
-104 -8 0
-105 -9 0
-70 -10 0
-71 -11 0
-72 -12 0
-88 -10 0
-89 -11 0
-90 -12 0
-94 -10 0
-95 -11 0
-96 -12 0
-109 -10 0
-110 -11 0
-111 -12 0
-124 -10 0
-125 -11 0
-126 -12 0
-139 -10 0
-140 -11 0
-141 -12 0
-142 -10 0
-143 -11 0
-144 -12 0
-52 -13 0
-53 -14 0
-54 -15 0
-58 -13 0
-59 -14 0
-60 -15 0
-79 -13 0
-80 -14 0
-81 -15 0
-100 -13 0
-101 -14 0
-102 -15 0
-124 -13 0
-125 -14 0
-126 -15 0
-130 -13 0
-131 -14 0
-132 -15 0
-52 -16 0
-53 -17 0
-54 -18 0
-55 -16 0
-56 -17 0
-57 -18 0
-88 -16 0
-89 -17 0
-90 -18 0
-109 -16 0
-110 -17 0
-111 -18 0
-61 -19 0
-62 -20 0
-63 -21 0
-82 -19 0
-83 -20 0
-84 -21 0
-100 -19 0
-101 -20 0
-102 -21 0
-106 -19 0
-107 -20 0
-108 -21 0
-133 -19 0
-134 -20 0
-135 -21 0
-85 -25 0
-86 -26 0
-87 -27 0
-94 -25 0
-95 -26 0
-96 -27 0
-115 -25 0
-116 -26 0
-117 -27 0
-130 -25 0
-131 -26 0
-132 -27 0
-52 -28 0
-53 -29 0
-54 -30 0
-97 -28 0
-98 -29 0
-99 -30 0
-103 -28 0
-104 -29 0
-105 -30 0
-106 -28 0
-107 -29 0
-108 -30 0
-121 -28 0
-122 -29 0
-123 -30 0
-142 -28 0
-143 -29 0
-144 -30 0
-76 -31 0
-77 -32 0
-78 -33 0
-91 -31 0
-92 -32 0
-93 -33 0
-121 -31 0
-122 -32 0
-123 -33 0
-145 -31 0
-146 -32 0
-147 -33 0
-64 -34 0
-65 -35 0
-66 -36 0
-127 -34 0
-128 -35 0
-129 -36 0
-133 -34 0
-134 -35 0
-135 -36 0
-136 -34 0
-137 -35 0
-138 -36 0
-76 -37 0
-77 -38 0
-78 -39 0
-109 -37 0
-110 -38 0
-111 -39 0
-115 -37 0
-116 -38 0
-117 -39 0
-148 -37 0
-149 -38 0
-150 -39 0
-52 -40 0
-53 -41 0
-54 -42 0
-67 -40 0
-68 -41 0
-69 -42 0
-70 -40 0
-71 -41 0
-72 -42 0
-97 -40 0
-98 -41 0
-99 -42 0
-130 -40 0
-131 -41 0
-132 -42 0
-133 -40 0
-134 -41 0
-135 -42 0
-136 -40 0
-137 -41 0
-138 -42 0
-142 -40 0
-143 -41 0
-144 -42 0
-70 -43 0
-71 -44 0
-72 -45 0
-79 -43 0
-80 -44 0
-81 -45 0
-97 -43 0
-98 -44 0
-99 -45 0
-76 -46 0
-77 -47 0
-78 -48 0
-100 -46 0
-101 -47 0
-102 -48 0
-103 -46 0
-104 -47 0
-105 -48 0
-136 -46 0
-137 -47 0
-138 -48 0
-139 -46 0
-140 -47 0
-141 -48 0
-55 -49 0
-56 -50 0
-57 -51 0
-79 -49 0
-80 -50 0
-81 -51 0
-91 -49 0
-92 -50 0
-93 -51 0
-94 -49 0
-95 -50 0
-96 -51 0
-106 -49 0
-107 -50 0
-108 -51 0
-145 -49 0
-146 -50 0
-147 -51 0
-103 -52 0
-104 -53 0
-105 -54 0
-145 -52 0
-146 -53 0
-147 -54 0
-103 -55 0
-104 -56 0
-105 -57 0
-121 -55 0
-122 -56 0
-123 -57 0
-124 -55 0
-125 -56 0
-126 -57 0
-148 -55 0
-149 -56 0
-150 -57 0
-103 -58 0
-104 -59 0
-105 -60 0
-106 -61 0
-107 -62 0
-108 -63 0
-133 -61 0
-134 -62 0
-135 -63 0
-139 -61 0
-140 -62 0
-141 -63 0
-142 -61 0
-143 -62 0
-144 -63 0
-136 -64 0
-137 -65 0
-138 -66 0
-145 -64 0
-146 -65 0
-147 -66 0
-130 -67 0
-131 -68 0
-132 -69 0
-136 -67 0
-137 -68 0
-138 -69 0
-142 -67 0
-143 -68 0
-144 -69 0
-148 -67 0
-149 -68 0
-150 -69 0
-121 -70 0
-122 -71 0
-123 -72 0
-136 -70 0
-137 -71 0
-138 -72 0
-139 -70 0
-140 -71 0
-141 -72 0
-148 -70 0
-149 -71 0
-150 -72 0
-115 -76 0
-116 -77 0
-117 -78 0
-130 -79 0
-131 -80 0
-132 -81 0
-109 -82 0
-110 -83 0
-111 -84 0
-112 -82 0
-113 -83 0
-114 -84 0
-115 -82 0
-116 -83 0
-117 -84 0
-121 -82 0
-122 -83 0
-123 -84 0
-103 -85 0
-104 -86 0
-105 -87 0
-124 -85 0
-125 -86 0
-126 -87 0
-148 -85 0
-149 -86 0
-150 -87 0
-115 -91 0
-116 -92 0
-117 -93 0
-115 -94 0
-116 -95 0
-117 -96 0
-142 -97 0
-143 -98 0
-144 -99 0
-106 -100 0
-107 -101 0
-108 -102 0
-112 -100 0
-113 -101 0
-114 -102 0
-127 -100 0
-128 -101 0
-129 -102 0
-136 -100 0
-137 -101 0
-138 -102 0
